TYPE : Vertex Cover
DIMENSION: 39
EDGE_DATA_SECTION:
0 8
0 10
0 18
0 28
0 30
0 32
1 4
1 9
1 10
1 17
1 20
1 24
1 26
1 38
2 11
2 17
2 19
2 22
2 27
3 4
3 7
3 9
3 11
3 18
3 20
3 25
3 26
3 32
3 33
3 34
3 38
4 20
4 24
4 27
4 30
4 36
5 11
5 14
5 15
5 18
5 22
5 24
5 25
5 28
5 31
6 7
6 9
6 10
6 11
6 15
6 20
6 22
6 29
6 32
7 9
7 11
7 13
7 24
7 27
7 34
7 35
8 12
8 17
8 22
8 26
8 27
8 29
8 33
8 37
9 11
9 17
9 20
9 23
9 25
9 29
9 30
9 33
9 38
10 12
10 13
10 16
10 17
10 18
10 30
10 33
10 35
10 37
10 38
11 12
11 22
11 31
11 34
11 35
11 36
11 38
12 13
12 14
12 20
12 21
12 26
12 29
12 30
12 33
12 35
13 14
13 17
13 24
13 28
13 29
13 32
14 26
14 33
14 34
14 35
15 20
15 21
15 22
15 25
15 33
15 37
16 32
16 35
16 36
17 23
17 29
17 31
17 35
17 36
18 19
18 26
18 27
18 28
18 38
19 20
19 27
19 32
19 33
19 34
19 38
20 25
20 26
20 31
20 34
20 37
20 38
21 22
21 25
21 26
21 27
21 34
21 38
22 25
22 32
23 26
23 28
23 30
23 31
23 35
23 37
23 38
24 26
24 29
24 32
25 27
25 29
25 30
25 34
25 35
26 28
26 29
26 30
26 31
26 33
26 35
27 33
27 37
28 38
29 31
29 38
31 33
31 35
31 36
32 36
36 38
-1
VERTEX_DEGREE:
6.0 8.0 5.0 12.0 7.0 9.0 9.0 9.0 9.0 13.0 13.0 13.0 12.0 9.0 7.0 8.0 4.0 11.0 9.0 8.0 14.0 8.0 9.0 9.0 8.0 12.0 16.0 10.0 7.0 11.0 8.0 10.0 9.0 11.0 8.0 11.0 7.0 6.0 13.0
VERTEX_COVER:
1 3 7 8 9 10 11 12 14 15 17 18 19 20 21 22 23 24 25 26 27 28 29 30 31 32 35 36
EOF
